NAME          COPTPROB
OBJSENSE
  MIN
ROWS
 N  __OBJ___
 L  C11     
 L  C51     
 L  C158    
 L  C175    
 L  C183    
 L  C198    
COLUMNS
    MARKER    'MARKER'                 'INTORG'
    x49       __OBJ___  32
    x49       C198      -1
    x133      __OBJ___  30
    x133      C51       -1
    x133      C175      -1
    x1265     __OBJ___  68
    x1265     C51       -1
    x1265     C183      -1
    x1309     __OBJ___  44
    x1309     C11       -1
    x1309     C175      -1
    x1329     __OBJ___  23
    x1329     C11       -1
    x1557     __OBJ___  42
    x1557     C158      -1
    x1557     C198      -1
    x2977     __OBJ___  34
    x2977     C11       -1
    x2977     C158      -1
    x3176     __OBJ___  54
    x3176     C183      -1
    x3176     C198      -1
    MARKER    'MARKER'                 'INTEND'
RHS
    RHS       __OBJ___  -3921
    RHS       C11       -1
    RHS       C51       -1
    RHS       C158      -1
    RHS       C175      -1
    RHS       C183      -1
    RHS       C198      -1
BOUNDS
 UP BOUND     x49       1
 UP BOUND     x133      1
 UP BOUND     x1265     1
 UP BOUND     x1309     1
 UP BOUND     x1329     1
 UP BOUND     x1557     1
 UP BOUND     x2977     1
 UP BOUND     x3176     1
ENDATA
